(set-info :smt-lib-version 2.6)
(set-info :category "crafted")
(set-logic QF_FFA)
(define-sort FF0 () (_ FiniteField 52435875175126190479447740508185965837690552500527637822603658699938581184513))
(declare-fun j () Bool)
(declare-fun c () Bool)
(declare-fun l () Bool)
(declare-fun k () Bool)
(declare-fun i () Bool)
(declare-fun h () Bool)
(declare-fun g () Bool)
(declare-fun f () Bool)
(declare-fun e () Bool)
(declare-fun d () Bool)
(declare-fun b () Bool)
(declare-fun a () Bool)
(declare-fun out () FF0)
(declare-fun _23 () FF0)
(declare-fun _12 () FF0)
(declare-fun _22 () FF0)
(declare-fun _11 () FF0)
(declare-fun _21 () FF0)
(declare-fun _10 () FF0)
(declare-fun _20 () FF0)
(declare-fun _8 () FF0)
(declare-fun _19 () FF0)
(declare-fun _7 () FF0)
(declare-fun _18 () FF0)
(declare-fun _6 () FF0)
(declare-fun _17 () FF0)
(declare-fun _5 () FF0)
(declare-fun _16 () FF0)
(declare-fun _4 () FF0)
(declare-fun _15 () FF0)
(declare-fun _3 () FF0)
(declare-fun _14 () FF0)
(declare-fun _1 () FF0)
(declare-fun _0 () FF0)
(declare-fun _9 () FF0)
(declare-fun _2 () FF0)
(assert 
  (let ((let0 j))
  (let ((let1 c))
  (let ((let2 (= let1 let0)))
  (let ((let3 l))
  (let ((let4 k))
  (let ((let5 i))
  (let ((let6 h))
  (let ((let7 g))
  (let ((let8 f))
  (let ((let9 e))
  (let ((let10 d))
  (let ((let11 b))
  (let ((let12 a))
  (let ((let13 (and let12 let11 let10 let9 let8 let7 let6 let5 let4 let3 let2)))
  (let ((let14 out))
  (let ((let15 (as ff1 FF0)))
  (let ((let16 (= let15 let14)))
  (let ((let17 (= let16 let13)))
  (let ((let18 (as ff0 FF0)))
  (let ((let19 (= let18 let14)))
  (let ((let20 (or let16 let19)))
  (let ((let21 (and let20 let17)))
  (let ((let22 _23))
  (let ((let23 (= let22 let14)))
  (let ((let24 (as ff52435875175126190479447740508185965837690552500527637822603658699938581184512 FF0)))
  (let ((let25 _12))
  (let ((let26 (ff.mul let25 let24)))
  (let ((let27 (ff.add let26 let15)))
  (let ((let28 _22))
  (let ((let29 (ff.mul let28 let27)))
  (let ((let30 (= let29 let22)))
  (let ((let31 _11))
  (let ((let32 _21))
  (let ((let33 (ff.mul let32 let31)))
  (let ((let34 (= let33 let28)))
  (let ((let35 _10))
  (let ((let36 _20))
  (let ((let37 (ff.mul let36 let35)))
  (let ((let38 (= let37 let32)))
  (let ((let39 _8))
  (let ((let40 _19))
  (let ((let41 (ff.mul let40 let39)))
  (let ((let42 (= let41 let36)))
  (let ((let43 _7))
  (let ((let44 _18))
  (let ((let45 (ff.mul let44 let43)))
  (let ((let46 (= let45 let40)))
  (let ((let47 _6))
  (let ((let48 _17))
  (let ((let49 (ff.mul let48 let47)))
  (let ((let50 (= let49 let44)))
  (let ((let51 _5))
  (let ((let52 _16))
  (let ((let53 (ff.mul let52 let51)))
  (let ((let54 (= let53 let48)))
  (let ((let55 _4))
  (let ((let56 _15))
  (let ((let57 (ff.mul let56 let55)))
  (let ((let58 (= let57 let52)))
  (let ((let59 _3))
  (let ((let60 _14))
  (let ((let61 (ff.mul let60 let59)))
  (let ((let62 (= let61 let56)))
  (let ((let63 _1))
  (let ((let64 _0))
  (let ((let65 (ff.mul let64 let63)))
  (let ((let66 (= let65 let60)))
  (let ((let67 _9))
  (let ((let68 (ff.mul let67 let24)))
  (let ((let69 _2))
  (let ((let70 (ff.add let69 let68)))
  (let ((let71 (ff.mul let70 let70)))
  (let ((let72 (= let71 let25)))
  (let ((let73 (ff.mul let31 let31)))
  (let ((let74 (= let73 let31)))
  (let ((let75 (ff.mul let35 let35)))
  (let ((let76 (= let75 let35)))
  (let ((let77 (ff.mul let67 let67)))
  (let ((let78 (= let77 let67)))
  (let ((let79 (ff.mul let39 let39)))
  (let ((let80 (= let79 let39)))
  (let ((let81 (ff.mul let43 let43)))
  (let ((let82 (= let81 let43)))
  (let ((let83 (ff.mul let47 let47)))
  (let ((let84 (= let83 let47)))
  (let ((let85 (ff.mul let51 let51)))
  (let ((let86 (= let85 let51)))
  (let ((let87 (ff.mul let55 let55)))
  (let ((let88 (= let87 let55)))
  (let ((let89 (ff.mul let59 let59)))
  (let ((let90 (= let89 let59)))
  (let ((let91 (ff.mul let69 let69)))
  (let ((let92 (= let91 let69)))
  (let ((let93 (ff.mul let63 let63)))
  (let ((let94 (= let93 let63)))
  (let ((let95 (ff.mul let64 let64)))
  (let ((let96 (= let95 let64)))
  (let ((let97 (and let96 let94 let92 let90 let88 let86 let84 let82 let80 let78 let76 let74 let72 let66 let62 let58 let54 let50 let46 let42 let38 let34 let30 let23)))
  (let ((let98 (ite let4 let15 let18)))
  (let ((let99 (= let35 let98)))
  (let ((let100 (ite let0 let15 let18)))
  (let ((let101 (= let67 let100)))
  (let ((let102 (ite let9 let15 let18)))
  (let ((let103 (= let55 let102)))
  (let ((let104 (ite let10 let15 let18)))
  (let ((let105 (= let59 let104)))
  (let ((let106 (ite let1 let15 let18)))
  (let ((let107 (= let69 let106)))
  (let ((let108 (ite let11 let15 let18)))
  (let ((let109 (= let63 let108)))
  (let ((let110 (ite let12 let15 let18)))
  (let ((let111 (= let64 let110)))
  (let ((let112 (ite let6 let15 let18)))
  (let ((let113 (= let43 let112)))
  (let ((let114 (ite let3 let15 let18)))
  (let ((let115 (= let31 let114)))
  (let ((let116 (ite let5 let15 let18)))
  (let ((let117 (= let39 let116)))
  (let ((let118 (ite let7 let15 let18)))
  (let ((let119 (= let47 let118)))
  (let ((let120 (ite let8 let15 let18)))
  (let ((let121 (= let51 let120)))
  (let ((let122 (and let121 let119 let117 let115 let113 let111 let109 let107 let105 let103 let101 let99)))
  (let ((let123 (and let122 let97)))
  (let ((let124 (=> let123 let21)))
  (let ((let125 (not let124)))
  let125
))))))))))))))))))))))))))))))))))))))))))))))))))))))))))))))))))))))))))))))))))))))))))))))))))))))))))))))))))))))))))))))
)
(check-sat)
